Gurobi Optimizer version 9.1.0 build v9.1.0rc0 (linux64)
Thread count: 8 physical cores, 16 logical processors, using up to 16 threads
Optimize a model with 312174 rows, 301200 columns and 1752950 nonzeros
Model fingerprint: 0xf8bcbdf1
Variable types: 0 continuous, 301200 integer (301200 binary)
Coefficient statistics:
  Matrix range     [1e+00, 1e+00]
  Objective range  [1e+01, 5e+04]
  Bounds range     [1e+00, 1e+00]
  RHS range        [1e+00, 5e+02]
Presolve removed 50 rows and 50 columns (presolve time = 5s) ...
Presolve added 0 rows and 4950 columns
Presolve removed 50 rows and 0 columns
Presolve time: 8.19s
Presolved: 312124 rows, 306150 columns, 1267850 nonzeros
Variable types: 0 continuous, 306150 integer (306150 binary)
Found heuristic solution: objective 1047497.0000

Concurrent LP optimizer: primal simplex, dual simplex, and barrier
Showing barrier log only...

Root barrier log...

Ordering time: 0.11s

Barrier statistics:
 Dense cols : 600
 AA' NZ     : 9.758e+05
 Factor NZ  : 6.535e+06 (roughly 300 MBytes of memory)
 Factor Ops : 3.028e+09 (less than 1 second per iteration)
 Threads    : 6

                  Objective                Residual
Iter       Primal          Dual         Primal    Dual     Compl     Time
   0   3.37011282e+08 -4.71156442e+08  5.04e+02 2.99e+01  1.80e+04    13s
   1   2.05898407e+06 -5.62127095e+08  1.70e+00 6.44e+02  6.81e+02    14s
   2   1.32871775e+06 -2.76771873e+08  4.69e-01 3.07e+02  3.19e+02    15s
   3   1.21293787e+06 -1.79067849e+08  2.63e-01 1.97e+02  2.04e+02    16s
   4   1.09442213e+06 -6.07233110e+07  3.65e-02 2.62e+02  6.90e+01    17s
   5   1.06343220e+06 -4.50053986e+06  1.21e-03 4.16e+01  6.18e+00    17s
   6   1.03013625e+06 -1.02266543e+06  6.83e-04 1.40e+01  2.27e+00    18s
   7   1.01022053e+06 -3.35530868e+04  5.53e-04 6.18e+00  1.15e+00    19s
   8   9.87115932e+05  4.30079724e+05  4.37e-04 2.66e+00  6.14e-01    20s
   9   9.77710543e+05  6.29502586e+05  3.99e-04 2.15e+00  3.83e-01    21s
  10   9.61359862e+05  6.99735937e+05  3.36e-04 1.45e+00  2.88e-01    22s
  11   9.50083198e+05  7.58061066e+05  2.98e-04 1.01e+00  2.11e-01    24s
  12   9.39263654e+05  7.91041056e+05  2.63e-04 6.69e-01  1.62e-01    26s
  13   9.30581445e+05  8.09612176e+05  2.35e-04 5.15e-01  1.32e-01    28s
  14   9.17678607e+05  8.23638239e+05  1.96e-04 3.57e-01  1.03e-01    29s
  15   9.14412738e+05  8.31739359e+05  1.85e-04 2.78e-01  9.04e-02    30s
  16   9.07926821e+05  8.37624838e+05  1.66e-04 2.11e-01  7.68e-02    31s
  17   9.01068233e+05  8.42241769e+05  1.46e-04 1.60e-01  6.43e-02    32s
  18   8.99051568e+05  8.44547616e+05  1.39e-04 1.38e-01  5.95e-02    33s
  19   8.90109306e+05  8.46888214e+05  1.10e-04 1.16e-01  4.72e-02    34s
  20   8.87919433e+05  8.48261362e+05  1.02e-04 1.03e-01  4.33e-02    35s
  21   8.82008852e+05  8.50328011e+05  8.34e-05 8.25e-02  3.46e-02    36s
  22   8.78971802e+05  8.51618007e+05  7.33e-05 6.88e-02  2.99e-02    37s
  23   8.77090285e+05  8.52790310e+05  6.74e-05 5.68e-02  2.65e-02    39s
  24   8.73215331e+05  8.53874649e+05  5.37e-05 4.57e-02  2.11e-02    39s
  25   8.70864221e+05  8.54701342e+05  4.56e-05 3.74e-02  1.76e-02    40s
  26   8.68781125e+05  8.55113646e+05  3.89e-05 3.34e-02  1.49e-02    41s
  27   8.67195008e+05  8.56014364e+05  3.35e-05 2.49e-02  1.22e-02    42s
  28   8.66214487e+05  8.56577667e+05  2.99e-05 1.91e-02  1.05e-02    43s
  29   8.64914008e+05  8.56850217e+05  2.52e-05 1.63e-02  8.80e-03    44s
  30   8.64015682e+05  8.57067522e+05  2.17e-05 1.41e-02  7.58e-03    45s
  31   8.63396065e+05  8.57312477e+05  1.95e-05 1.18e-02  6.64e-03    46s
  32   8.62606189e+05  8.57499074e+05  1.66e-05 1.00e-02  5.57e-03    47s
  33   8.62160356e+05  8.57731093e+05  1.48e-05 7.96e-03  4.83e-03    48s
  34   8.61775100e+05  8.57815614e+05  1.32e-05 7.16e-03  4.32e-03    49s
  35   8.61300334e+05  8.57902880e+05  1.14e-05 6.35e-03  3.71e-03    50s
  36   8.60992178e+05  8.57990383e+05  1.01e-05 5.56e-03  3.27e-03    51s
  37   8.60645403e+05  8.58054060e+05  8.69e-06 4.95e-03  2.83e-03    52s
  38   8.60373329e+05  8.58099929e+05  7.57e-06 4.52e-03  2.48e-03    53s
  39   8.60229581e+05  8.58216373e+05  6.96e-06 3.51e-03  2.20e-03    54s
  40   8.59991371e+05  8.58268539e+05  6.01e-06 3.05e-03  1.88e-03    55s
  41   8.59804142e+05  8.58290156e+05  5.23e-06 2.85e-03  1.65e-03    55s
  42   8.59659409e+05  8.58336377e+05  4.63e-06 2.43e-03  1.44e-03    56s
  43   8.59527712e+05  8.58373292e+05  4.07e-06 2.07e-03  1.26e-03    57s
  44   8.59429646e+05  8.58409120e+05  3.68e-06 1.75e-03  1.11e-03    58s
  45   8.59336049e+05  8.58444168e+05  3.25e-06 1.45e-03  9.72e-04    59s
  46   8.59271881e+05  8.58473707e+05  2.96e-06 1.20e-03  8.70e-04    60s
  47   8.59195359e+05  8.58489106e+05  2.65e-06 1.07e-03  7.70e-04    61s
  48   8.59118078e+05  8.58510169e+05  2.32e-06 8.83e-04  6.63e-04    62s
  49   8.59046813e+05  8.58518228e+05  2.00e-06 8.18e-04  5.76e-04    63s
  50   8.59019815e+05  8.58523528e+05  1.88e-06 7.73e-04  5.41e-04    64s
  51   8.58969230e+05  8.58534050e+05  1.65e-06 6.81e-04  4.74e-04    64s
  52   8.58912014e+05  8.58548642e+05  1.39e-06 5.54e-04  3.96e-04    65s
  53   8.58874580e+05  8.58558069e+05  1.22e-06 4.74e-04  3.45e-04    66s
  54   8.58850489e+05  8.58565357e+05  1.10e-06 4.20e-04  3.11e-04    67s
  55   8.58798025e+05  8.58570584e+05  8.60e-07 3.77e-04  2.48e-04    68s
  56   8.58771109e+05  8.58572555e+05  7.34e-07 3.60e-04  2.17e-04    69s
  57   8.58765002e+05  8.58579529e+05  7.07e-07 3.12e-04  2.02e-04    70s
  58   8.58756260e+05  8.58583205e+05  6.63e-07 2.81e-04  1.89e-04    70s
  59   8.58743558e+05  8.58587397e+05  6.03e-07 2.47e-04  1.70e-04    71s
  60   8.58734177e+05  8.58590127e+05  5.60e-07 2.26e-04  1.57e-04    72s
  61   8.58713790e+05  8.58595779e+05  4.64e-07 1.80e-04  1.29e-04    73s
  62   8.58695811e+05  8.58599688e+05  3.77e-07 1.48e-04  1.05e-04    74s
  63   8.58688498e+05  8.58600965e+05  3.44e-07 1.38e-04  9.54e-05    74s
  64   8.58675433e+05  8.58604013e+05  2.80e-07 1.15e-04  7.78e-05    75s
  65   8.58663318e+05  8.58606186e+05  2.18e-07 9.86e-05  6.23e-05    76s
  66   8.58661430e+05  8.58607566e+05  2.09e-07 8.96e-05  5.87e-05    77s
  67   8.58655492e+05  8.58610340e+05  1.79e-07 7.05e-05  4.92e-05    78s
  68   8.58650916e+05  8.58612922e+05  1.56e-07 5.03e-05  4.14e-05    79s
  69   8.58647375e+05  8.58613769e+05  1.40e-07 4.39e-05  3.66e-05    80s
  70   8.58642835e+05  8.58614203e+05  1.18e-07 4.05e-05  3.12e-05    80s
  71   8.58638771e+05  8.58615257e+05  9.83e-08 3.24e-05  2.56e-05    81s
  72   8.58636486e+05  8.58615872e+05  8.64e-08 2.76e-05  2.25e-05    82s
  73   8.58633621e+05  8.58616061e+05  7.19e-08 2.62e-05  1.91e-05    83s
  74   8.58631850e+05  8.58616293e+05  6.35e-08 2.45e-05  1.70e-05    84s
  75   8.58627396e+05  8.58617204e+05  3.97e-08 1.78e-05  1.11e-05    84s
  76   8.58626379e+05  8.58617488e+05  3.44e-08 1.58e-05  9.69e-06    85s
  77   8.58623918e+05  8.58617767e+05  2.17e-08 1.39e-05  6.71e-06    86s
  78   8.58623191e+05  8.58618561e+05  1.81e-08 8.43e-06  5.05e-06    86s
  79   8.58622920e+05  8.58618761e+05  1.67e-08 6.89e-06  4.53e-06    87s
  80   8.58622361e+05  8.58618918e+05  1.38e-08 5.88e-06  3.75e-06    88s
  81   8.58622235e+05  8.58619089e+05  1.32e-08 4.74e-06  3.43e-06    89s
  82   8.58621649e+05  8.58619233e+05  9.96e-09 3.70e-06  2.63e-06    90s
  83   8.58621299e+05  8.58619422e+05  8.16e-09 2.35e-06  2.04e-06    90s
  84   8.58621244e+05  8.58619457e+05  7.86e-09 2.11e-06  1.95e-06    91s
  85   8.58620677e+05  8.58619607e+05  4.88e-09 1.05e-06  1.17e-06    92s
  86   8.58620411e+05  8.58619661e+05  3.45e-09 6.39e-07  8.17e-07    93s
  87   8.58620149e+05  8.58619737e+05  1.97e-09 2.61e-07  4.48e-07    93s
  88   8.58620040e+05  8.58619758e+05  4.60e-09 1.57e-07  3.06e-07    94s
  89   8.58619883e+05  8.58619775e+05  1.66e-09 7.46e-08  1.18e-07    95s
  90   8.58619825e+05  8.58619787e+05  6.12e-10 1.40e-08  4.13e-08    95s
  91   8.58619822e+05  8.58619789e+05  6.92e-09 2.10e-07  3.58e-08    96s
  92   8.58619821e+05  8.58619789e+05  6.74e-09 2.16e-07  3.48e-08    97s
  93   8.58619822e+05  8.58619789e+05  8.24e-08 2.16e-07  3.48e-08    97s

Barrier solved model in 93 iterations and 97.28 seconds
Optimal objective 8.58619822e+05


Root crossover log...

  129594 DPushes remaining with DInf 1.3127914e-05                98s
      27 DPushes remaining with DInf 0.0000000e+00               100s
       0 DPushes remaining with DInf 0.0000000e+00               100s

    1853 PPushes remaining with PInf 1.0750674e-05               100s
       0 PPushes remaining with PInf 0.0000000e+00               101s

  Push phase complete: Pinf 0.0000000e+00, Dinf 3.6374400e-01    101s


Root simplex log...

Iteration    Objective       Primal Inf.    Dual Inf.      Time
   16167    8.5861979e+05   0.000000e+00   3.637440e-01    101s
   16168    8.5861979e+05   0.000000e+00   0.000000e+00    101s
   16168    8.5861979e+05   0.000000e+00   0.000000e+00    102s

Solved with barrier

Root relaxation: objective 8.586198e+05, 16168 iterations, 91.20 seconds
Total elapsed time = 106.17s

    Nodes    |    Current Node    |     Objective Bounds      |     Work
 Expl Unexpl |  Obj  Depth IntInf | Incumbent    BestBd   Gap | It/Node Time

     0     0 858619.791    0 13687 1047497.00 858619.791  18.0%     -  109s
H    0     0                    870938.00000 858619.791  1.41%     -  111s
H    0     0                    870909.00000 858619.791  1.41%     -  112s
H    0     0                    870897.00000 858619.791  1.41%     -  115s
     0     0 858621.004    0 13667 870897.000 858621.004  1.41%     -  135s
H    0     0                    869714.00000 858621.004  1.28%     -  223s
     0     0 858631.828    0 13944 869714.000 858631.828  1.27%     -  259s
H    0     0                    869707.00000 858631.828  1.27%     -  264s
     0     0 858633.806    0 13938 869707.000 858633.806  1.27%     -  270s
     0     0 858636.928    0 13701 869707.000 858636.928  1.27%     -  295s
     0     0 858637.103    0 13950 869707.000 858637.103  1.27%     -  300s

Cutting planes:
  Gomory: 1
  Zero half: 72

Explored 1 nodes (24568 simplex iterations) in 300.04 seconds
Thread count was 16 (of 16 available processors)

Solution count 6: 869707 869714 870897 ... 1.0475e+06

Time limit reached
Best objective 8.697070000000e+05, best bound 8.586371029703e+05, gap 1.2728%

User-callback calls 35330, time in user-callback 0.48 sec
Result: runtime=300.00sec; objective=869707; gap=1.2728%
Solution written to /autofs/unityaccount/cremi/mdeboute/Bureau/multi-period-flp/solution//instMulti_I50_J500_T12_1_result.txt
